c A SAT instance generated from a 3-CNF formula that had 16 clauses and 8 variables
p cnf 8 16
5 7 8 0
6 -4 -1 0
-3 5 8 0
-2 -3 7 0
5 -4 8 0
6 5 -4 0
2 -1 -7 0
2 -6 3 0
-2 -4 8 0
-4 -5 3 0
-4 3 2 0
-7 -2 -4 0
2 -3 -4 0
-4 2 7 0
-4 -5 -2 0
-4 -1 -7 0
